
$ Database file from  
$ S. S. Lim, P. L. Rossiter and J. E. Tibballs, Calphad 19, 131-141 (1995)
$
 ELEMENT /-   ELECTRON_GAS              0.0000E+00  0.0000E+00  0.0000E+00!
 ELEMENT VA   VACUUM                    0.0000E+00  0.0000E+00  0.0000E+00!
 ELEMENT AG   FCC_A1                    1.0787E+02  5.7446E+03  4.2551E+01!
 ELEMENT AL   FCC_A1                    2.6982E+01  4.5773E+03  2.8322E+01!


 FUNCTION GHSERAG    2.98140E+02  -7209.512+118.202013*T-23.8463314*T*LN(T)
     -.001790585*T**2-3.98587E-07*T**3-12011*T**(-1);  1.23493E+03  Y
      -15095.252+190.266404*T-33.472*T*LN(T)+1.411773E+29*T**(-9);  
     3.00000E+03  N !
 FUNCTION GHSERAL    2.98140E+02  -7976.15+137.093038*T-24.3671976*T*LN(T)
     -.001884662*T**2-8.77664E-07*T**3+74092*T**(-1);  7.00000E+02  Y
      -11276.24+223.048446*T-38.5844296*T*LN(T)+.018531982*T**2
     -5.764227E-06*T**3+74092*T**(-1);  9.33470E+02  Y
      -11278.378+188.684153*T-31.748192*T*LN(T)-1.230524E+28*T**(-9);  
     2.90000E+03  N !
 FUNCTION GALHCP  2.98150E+02  +5481-1.8*T+GHSERAL#;  6.00000E+03  N !
 FUNCTION GALBCC  2.98150E+02  +10083-4.813*T+GHSERAL#;  6.00000E+03  N !
 FUNCTION UN_ASS 298.15 0; 300 N !

 TYPE_DEFINITION % SEQ *!
 DEFINE_SYSTEM_DEFAULT SPECIE 2 !
 DEFAULT_COMMAND DEF_SYS_ELEMENT VA !


 PHASE LIQUID  %  1  1.0  !
    CONSTITUENT LIQUID  :AG,AL :  !

 PARAMETER G(LIQUID,AG;0)  2.98140E+02  +11025.076-8.89102*T+GHSERAG#
   -1.033905E-20*T**7;  1.23493E+03  Y
   -3587.111+180.964656*T-33.472*T*LN(T);  3.00000E+03  N REF:0 !
 PARAMETER G(LIQUID,AL;0)  2.98140E+02  +11005.029-11.841867*T+GHSERAL#
   +7.9337E-20*T**7;  7.00000E+02  Y
   +11005.03-11.841867*T+GHSERAL#+7.9337E-20*T**7;  9.33470E+02  Y
   -795.996+177.430178*T-31.748192*T*LN(T);  2.90000E+03  N REF:0 !
 PARAMETER  G(LIQUID,AG,AL;0)  298.14  -15300-8.8*T;  6000  N  !
 PARAMETER  G(LIQUID,AG,AL;1)  298.14  -25400+4.3*T;  6000  N  !
 PARAMETER  G(LIQUID,AG,AL;2)  298.14  +910+0.2*T;    6000  N  !
 PARAMETER  G(LIQUID,AG,AL;3)  298.14  +8500;         6000  N  !

 PHASE BCC_A2  %  2 1   3 !
    CONSTITUENT BCC_A2  :AG,AL : VA :  !

 PARAMETER G(BCC_A2,AG:VA;0)  2.98140E+02  +3400-1.05*T+GHSERAG#;  
   3.00000E+03  N REF:0 !
 PARAMETER G(BCC_A2,AL:VA;0)  2.98140E+02  +GALBCC#;  2.90000E+03  N REF:0 !
 PARAMETER  G(BCC_A2,AG,AL:VA;0) 298.14  -28400-2.7*T;  6000  N  !
 PARAMETER  G(BCC_A2,AG,AL:VA;1)  298.14  -25300;  6000  N  !   

 
 PHASE CUB_A13  %  2 1   1 !
    CONSTITUENT CUB_A13  :AG,AL : VA :  !

 PARAMETER G(CUB_A13,AG:VA;0)  2.98150E+02  +3400-1.05*T+GHSERAG#;   
   6.00000E+03   N REF:0 !
 PARAMETER G(CUB_A13,AL:VA;0)  2.98140E+02  +10920.44-4.8116*T+GHSERAL#;  
   2.90000E+03  N REF:0 !
 PARAMETER  G(CUB_A13,AG,AL:VA;0)  298.14   -37500+12*T;  6000  N  !
 PARAMETER  G(CUB_A13,AG,AL:VA;1) 298.14   -32500;  6000  N  !

 PHASE FCC_A1  %  2 1   1 !
    CONSTITUENT FCC_A1  :AG,AL : VA :  !

 PARAMETER G(FCC_A1,AG:VA;0)  2.98140E+02  +GHSERAG#;  3.00000E+03  N 
  REF:0 !
 PARAMETER G(FCC_A1,AL:VA;0)  2.98140E+02  +GHSERAL#;  2.90000E+03  N 
  REF:0 !
 PARAMETER  G(FCC_A1,AG,AL:VA;0)  298.14   -8500-5.8*T;  6000  N  !
 PARAMETER  G(FCC_A1,AG,AL:VA;1)  298.14   -20360;   6000  N  !
 PARAMETER  G(FCC_A1,AG,AL:VA;2)  298.14   -3200;    6000  N  !


 PHASE HCP_A3  %  2 1   .5 !
    CONSTITUENT HCP_A3  :AG,AL : VA :  !

 PARAMETER G(HCP_A3,AG:VA;0)  2.98140E+02  +300+.3*T+GHSERAG#;  
   3.00000E+03  N REF:0 !
 PARAMETER G(HCP_A3,AL:VA;0)  2.98140E+02  +GALHCP#;  2.90000E+03  N REF:0 !
 PARAMETER  G(HCP_A3,AG,AL:VA;0)  298.14   -10500;   6000  N !
 PARAMETER  G(HCP_A3,AG,AL:VA;1)  298.14   -204000-8.7*T;  6000  N  !
 PARAMETER  G(HCP_A3,AG,AL:VA;2)  298.14   740400;   6000  N  !
 PARAMETER  G(HCP_A3,AG,AL:VA;3)  298.14  -1113050;  6000  N  !
 PARAMETER  G(HCP_A3,AG,AL:VA;4)  298.14   +594420;  6000  N  !


 LIST_OF_REFERENCES
 NUMBER  SOURCE
  ! 

